
Gurobi 9.5.1 (linux64) logging started Fri Jun  3 11:31:34 2022

Set parameter LogFile to value "../results/logs/log_CA-HepPh_4_250_2022_06_03_11_24.log"
Set parameter LazyConstraints to value 1
Gurobi Optimizer version 9.5.1 build v9.5.1rc2 (linux64)
Thread count: 8 physical cores, 8 logical processors, using up to 8 threads
Optimize a model with 68302336 rows, 36018 columns and 205368952 nonzeros
Model fingerprint: 0x4419571c
Variable types: 0 continuous, 36018 integer (36018 binary)
Coefficient statistics:
  Matrix range     [1e+00, 4e+00]
  Objective range  [1e+00, 1e+00]
  Bounds range     [1e+00, 1e+00]
  RHS range        [1e+00, 2e+02]

Explored 0 nodes (0 simplex iterations) in 15.92 seconds (0.00 work units)
Thread count was 1 (of 8 available processors)

Solution count 0

Best objective -, best bound -, gap -

User-callback calls 18, time in user-callback 0.46 sec
